\* Problem: Unknown *\

Maximize
 obj: + xp_0_0 + xp_1_0 + xp_1_1 + xp_2_0 + xp_3_0 + xp_3_1 + xp_4_0
 + xp_5_0 + xp_6_0 + xp_7_0 + xp_8_0 + xp_9_0 + xp_9_1 + xp_10_0
 + xp_11_0 + xp_11_1 + xp_12_0 + xp_12_1 + xp_13_0 + xp_14_0 + xp_14_1
 + xp_15_0 + xp_16_0 + xp_17_0 + xp_17_1 + xp_18_0 + xp_18_1 + xp_19_0
 + xp_19_1 + xp_20_0 + xp_21_0 + xp_22_0 + xp_23_0 + xp_24_0 + xp_24_1
 + xp_25_0 + xp_26_0 + xp_27_0 + xp_28_0 + xp_28_1 + xp_29_0 + xp_30_0
 + xp_30_1 + xp_31_0 + xp_32_0 + xp_32_1 + xp_32_2 + xp_33_0 + xp_34_0
 + xp_34_1 + xp_35_0 + xp_36_0 + xp_37_0 + xp_38_0 + xp_39_0 + xp_40_0
 + xp_40_1 + xp_41_0 + xp_42_0 + xp_42_1 + xp_43_0 + xp_44_0 + xp_45_0
 + xp_46_0 + xp_47_0 + xp_48_0 + xp_48_1 + xp_49_0 + xp_50_0 + xp_50_1
 + xp_51_0 + xp_52_0 + xp_53_0 + xp_54_0 + xp_55_0 + xp_56_0 + xp_57_0
 + xp_58_0 + xp_58_1 + xp_59_0 + xp_60_0 + xp_60_1 + xp_61_0 + xp_61_1
 + xp_62_0 + xp_63_0 + xp_63_1 + xp_64_0 + xp_65_0 + xp_66_0 + xp_67_0
 + xp_68_0 + xp_68_1 + xp_69_0 + xp_70_0 + xp_71_0 + xp_72_0 + xp_73_0
 + xp_74_0 + xp_75_0 + xp_76_0 + xp_77_0 + xp_77_1 + xp_78_0 + xp_78_1
 + xp_78_2 + xp_79_0 + xp_79_1 + xp_79_2 + xp_80_0 + xp_80_1 + xp_81_0
 + xp_82_0 + xp_83_0 + xp_84_0 + xp_85_0 + xp_85_1 + xp_86_0 + xp_86_1
 + xp_87_0 + xp_88_0 + xp_89_0 + xp_89_1 + xp_90_0 + xp_90_1 + xp_90_2
 + xp_91_0 + xp_91_1 + xp_91_2 + xp_92_0 + xp_93_0 + xp_94_0 + xp_95_0
 + xp_96_0 + xp_97_0 + xp_98_0 + xp_98_1 + xp_99_0 + xp_100_0 + xp_101_0
 + xp_102_0 + xp_103_0 + xp_104_0 + xp_105_0 + xp_106_0 + xp_107_0
 + xp_108_0 + xp_108_1 + xp_108_2 + xp_109_0 + xp_109_1 + xp_110_0
 + xp_111_0 + xp_112_0 + xp_113_0 + xp_114_0 + xp_115_0 + xp_115_1
 + xp_116_0 + xp_116_1 + xp_117_0 + xp_118_0 + xp_119_0 + xp_120_0
 + xp_120_1 + xp_121_0 + xp_122_0 + xp_123_0 + xp_124_0 + xp_125_0
 + xp_126_0 + xp_126_1 + xp_126_2 + xp_126_3 + xp_127_0 + xp_127_1
 + xp_128_0 + xp_128_1 + xp_129_0 + xp_129_1 + xp_130_0 + xp_131_0
 + xp_131_1

Subject To
 r_1: + xp_128_1 + xp_122_0 + xp_121_0 + xp_108_1 + xp_107_0 + xp_78_2
 + xp_40_1 + xp_25_0 + xp_18_0 + xp_16_0 + xp_4_0 <= 39484.32760364
 r_2: + xp_131_1 + xp_127_1 + xp_126_1 + xp_120_0 + xp_93_0 + xp_90_2
 + xp_89_1 + xp_85_1 + xp_85_0 + xp_77_1 + xp_75_0 + xp_71_0 + xp_66_0
 + xp_65_0 + xp_61_1 + xp_55_0 + xp_52_0 + xp_48_1 + xp_48_0 + xp_42_1
 + xp_32_2 + xp_32_0 + xp_28_1 + xp_28_0 + xp_24_0 + xp_19_1 + xp_19_0
 + xp_12_1 + xp_1_1 <= 35760.391198044
 r_3: + xp_126_3 + xp_114_0 + xp_95_0 + xp_91_1 + xp_79_1 + xp_76_0
 + xp_34_0 <= 40000
 r_4: + xp_117_0 + xp_91_2 + xp_91_0 + xp_84_0 + xp_79_2 + xp_79_0
 + xp_46_0 + xp_43_0 + xp_40_1 + xp_40_0 + xp_34_1 <= 37866.6666666667
 r_5: + xp_130_0 + xp_99_0 + xp_86_0 + xp_7_0 + xp_2_0 <= 40000
 r_6: + xp_126_3 + xp_126_2 + xp_119_0 + xp_114_0 + xp_95_0 + xp_91_1
 + xp_83_0 + xp_81_0 + xp_79_1 + xp_70_0 + xp_68_1 + xp_58_1 + xp_53_0
 + xp_48_1 + xp_45_0 + xp_34_0 + xp_32_2 + xp_32_1 + xp_30_1 + xp_18_0
 <= 40000
 r_7: + xp_104_0 + xp_88_0 + xp_82_0 + xp_78_1 + xp_50_1 + xp_44_0
 + xp_27_0 + xp_18_1 + xp_3_1 <= 37866.6666666667
 r_8: + xp_131_1 + xp_127_1 + xp_126_1 + xp_120_0 + xp_118_0 + xp_103_0
 + xp_90_2 + xp_89_1 + xp_77_1 + xp_71_0 + xp_61_1 + xp_55_0 + xp_42_1
 + xp_32_2 + xp_32_0 + xp_24_0 + xp_12_1 + xp_1_1 <= 39484.32760364
 r_9: + xp_131_0 + xp_127_0 + xp_122_0 + xp_120_1 + xp_108_1 + xp_78_2
 + xp_77_0 + xp_42_0 + xp_33_0 + xp_32_1 + xp_24_1 <= 40000
 r_10: + xp_106_0 + xp_99_0 + xp_98_0 + xp_88_0 + xp_86_0 + xp_85_0
 + xp_78_1 + xp_50_1 + xp_26_0 + xp_24_0 + xp_8_0 + xp_7_0 + xp_3_1
 + xp_2_0 <= 40000
 r_11: + xp_119_0 + xp_112_0 + xp_111_0 + xp_95_0 + xp_91_1 + xp_81_0
 + xp_79_1 + xp_78_2 + xp_78_0 + xp_59_0 + xp_53_0 + xp_50_0 + xp_49_0
 + xp_45_0 + xp_34_0 + xp_18_0 + xp_4_0 + xp_3_0 <= 37263.8208537439
 r_12: + xp_129_0 + xp_128_0 + xp_123_0 + xp_117_0 + xp_108_2 + xp_101_0
 + xp_91_2 + xp_82_0 + xp_80_1 + xp_79_2 + xp_78_1 + xp_78_0 + xp_73_0
 + xp_63_1 + xp_60_0 + xp_50_1 + xp_46_0 + xp_44_0 + xp_40_0 + xp_18_1
 + xp_17_1 + xp_15_0 + xp_14_1 + xp_13_0 + xp_9_0 <= 36716.5109034268
 r_13: + xp_129_1 + xp_128_1 + xp_120_1 + xp_109_1 + xp_100_0 + xp_91_0
 + xp_90_0 + xp_80_0 + xp_79_0 + xp_68_0 + xp_63_0 + xp_60_1 + xp_40_1
 + xp_34_1 + xp_31_0 + xp_30_0 + xp_17_0 + xp_9_1 <= 37263.8208537439
 r_14: + xp_131_1 + xp_131_0 + xp_126_3 + xp_126_2 + xp_125_0 + xp_124_0
 + xp_115_1 + xp_115_0 + xp_98_1 + xp_94_0 + xp_86_1 + xp_85_1 + xp_77_1
 + xp_77_0 + xp_68_1 + xp_65_0 + xp_58_1 + xp_56_0 + xp_51_0 + xp_48_1
 + xp_41_0 + xp_38_0 + xp_35_0 + xp_32_2 + xp_32_1 + xp_30_1 + xp_24_1
 + xp_20_0 + xp_19_1 + xp_19_0 + xp_12_1 + xp_12_0 + xp_0_0
 <= 37866.6666666667
 r_15: + xp_131_1 + xp_131_0 + xp_126_3 + xp_126_2 + xp_125_0 + xp_124_0
 + xp_120_1 + xp_116_0 + xp_115_0 + xp_109_1 + xp_98_1 + xp_94_0
 + xp_90_0 + xp_89_1 + xp_89_0 + xp_86_1 + xp_85_1 + xp_77_1 + xp_77_0
 + xp_68_1 + xp_68_0 + xp_65_0 + xp_58_1 + xp_51_0 + xp_48_1 + xp_42_1
 + xp_42_0 + xp_38_0 + xp_36_0 + xp_32_2 + xp_32_1 + xp_28_1 + xp_24_1
 + xp_19_1 + xp_12_0 + xp_11_0 + xp_0_0 <= 36716.5109034268
 r_16: + xp_128_0 + xp_123_0 + xp_108_2 + xp_108_0 + xp_78_1 + xp_78_0
 + xp_73_0 + xp_67_0 + xp_57_0 + xp_46_0 + xp_44_0 + xp_40_0 + xp_22_0
 + xp_18_1 + xp_13_0 + xp_6_0 <= 36716.5109034268
 r_17: + xp_129_0 + xp_126_0 + xp_109_0 + xp_97_0 + xp_91_2 + xp_90_1
 + xp_80_1 + xp_79_2 + xp_63_1 + xp_62_0 + xp_61_0 + xp_60_0 + xp_47_0
 + xp_17_1 + xp_9_0 + xp_1_0 <= 35760.391198044
 r_18: + xp_126_1 + xp_126_0 + xp_106_0 + xp_99_0 + xp_98_0 + xp_92_0
 + xp_86_0 + xp_85_0 + xp_68_0 + xp_58_0 + xp_48_0 + xp_32_0 + xp_30_0
 + xp_26_0 + xp_24_0 + xp_5_0 + xp_2_0 <= 37263.8208537439
 r_19: + xp_116_1 + xp_115_1 + xp_110_0 + xp_108_2 + xp_78_0 + xp_56_0
 + xp_28_0 + xp_19_0 + xp_14_1 + xp_12_1 + xp_11_1 + xp_3_0
 <= 37263.8208537439
 r_20: + xp_129_1 + xp_128_1 + xp_119_0 + xp_112_0 + xp_111_0 + xp_108_1
 + xp_108_0 + xp_107_0 + xp_95_0 + xp_91_1 + xp_91_0 + xp_81_0 + xp_80_0
 + xp_79_1 + xp_79_0 + xp_78_2 + xp_69_0 + xp_64_0 + xp_63_0 + xp_60_1
 + xp_50_0 + xp_49_0 + xp_45_0 + xp_40_1 + xp_18_0 + xp_17_0 + xp_14_0
 + xp_10_0 + xp_9_1 + xp_4_0 <= 35760.391198044
 r_21: + xp_126_3 + xp_113_0 + xp_86_1 + xp_77_1 + xp_77_0 + xp_65_0
 + xp_38_0 + xp_20_0 + xp_0_0 <= 37866.6666666667
 r_22: + xp_126_2 + xp_124_0 + xp_105_0 + xp_98_1 + xp_94_0 + xp_85_1
 + xp_83_0 + xp_68_1 + xp_58_1 + xp_48_1 + xp_41_0 + xp_32_2 + xp_32_1
 + xp_30_1 + xp_24_1 <= 37866.6666666667
 r_23: + xp_128_1 + xp_128_0 + xp_117_0 + xp_104_0 + xp_100_0 + xp_91_2
 + xp_91_0 + xp_84_0 + xp_82_0 + xp_80_1 + xp_80_0 + xp_79_2 + xp_79_0
 + xp_78_1 + xp_73_0 + xp_60_1 + xp_60_0 + xp_50_1 + xp_46_0 + xp_44_0
 + xp_40_1 + xp_40_0 + xp_34_1 + xp_21_0 + xp_18_1 + xp_15_0 + xp_9_1
 + xp_9_0 + xp_3_1 <= 37866.6666666667
 r_24: + xp_128_0 + xp_126_1 + xp_103_0 + xp_90_2 + xp_89_1 + xp_61_1
 + xp_40_0 + xp_39_0 + xp_22_0 + xp_18_1 + xp_13_0 + xp_12_1 + xp_1_1
 <= 40000
 r_25: + xp_131_0 + xp_127_0 + xp_126_3 + xp_126_2 + xp_126_0 + xp_120_1
 + xp_94_0 + xp_90_1 + xp_90_0 + xp_89_0 + xp_77_0 + xp_74_0 + xp_61_0
 + xp_42_0 + xp_38_0 + xp_32_1 + xp_24_1 + xp_12_0 + xp_1_0
 <= 36716.5109034268
 r_26: + xp_128_1 + xp_121_0 + xp_112_0 + xp_108_1 + xp_107_0 + xp_81_0
 + xp_79_2 + xp_79_1 + xp_79_0 + xp_78_2 + xp_64_0 + xp_60_1 + xp_60_0
 + xp_47_0 + xp_40_1 + xp_37_0 + xp_29_0 + xp_25_0 + xp_18_0 + xp_17_1
 + xp_17_0 + xp_4_0 <= 35760.391198044
 r_27: + xp_131_1 + xp_127_1 + xp_125_0 + xp_116_0 + xp_115_0 + xp_108_0
 + xp_98_1 + xp_89_1 + xp_86_1 + xp_85_1 + xp_77_1 + xp_72_0 + xp_67_0
 + xp_65_0 + xp_58_1 + xp_57_0 + xp_52_0 + xp_50_0 + xp_48_1 + xp_42_1
 + xp_32_2 + xp_28_1 + xp_23_0 + xp_19_1 + xp_14_0 + xp_11_0
 <= 35760.391198044
 r_28: + xp_126_1 + xp_126_0 + xp_120_0 + xp_116_1 + xp_115_1 + xp_109_0
 + xp_99_0 + xp_98_0 + xp_96_0 + xp_92_0 + xp_90_2 + xp_90_1 + xp_86_0
 + xp_85_0 + xp_75_0 + xp_58_0 + xp_54_0 + xp_48_0 + xp_32_0 + xp_28_0
 + xp_26_0 + xp_24_0 + xp_19_0 + xp_12_1 + xp_11_1 <= 35760.391198044
 r_29: + xp_129_1 + xp_129_0 + xp_95_0 + xp_93_0 + xp_87_0 + xp_71_0
 + xp_62_0 + xp_49_0 + xp_45_0 + xp_10_0 + xp_9_1 + xp_9_0 + xp_1_1
 + xp_1_0 <= 35760.391198044
 r_30: + xp_125_0 + xp_121_0 + xp_102_0 + xp_99_0 + xp_96_0 + xp_92_0
 + xp_57_0 + xp_37_0 + xp_26_0 + xp_23_0 + xp_11_1 + xp_11_0
 <= 35760.391198044

Bounds
 0 <= xp_0_0 <= 225.124596717268
 0 <= xp_1_0 <= 139.350867688678
 0 <= xp_1_1 <= 34.8377169221695
 0 <= xp_2_0 <= 109.732519908277
 0 <= xp_3_0 <= 139.149638998875
 0 <= xp_3_1 <= 34.7874097497187
 0 <= xp_4_0 <= 752.658183829325
 0 <= xp_5_0 <= 1033.62374196697
 0 <= xp_6_0 <= 1709.62637177441
 0 <= xp_7_0 <= 608.968322516767
 0 <= xp_8_0 <= 1440.42011519714
 0 <= xp_9_0 <= 61.9532828731432
 0 <= xp_9_1 <= 41.3021885820955
 0 <= xp_10_0 <= 52.3194593488177
 0 <= xp_11_0 <= 31.6935186439953
 0 <= xp_11_1 <= 7.92337966099883
 0 <= xp_12_0 <= 1577.78384957401
 0 <= xp_12_1 <= 394.445962393502
 0 <= xp_13_0 <= 240.405400349195
 0 <= xp_14_0 <= 83.9375172341368
 0 <= xp_14_1 <= 125.906275851205
 0 <= xp_15_0 <= 483.829231045436
 0 <= xp_16_0 <= 2519.69761616319
 0 <= xp_17_0 <= 226.734426235693
 0 <= xp_17_1 <= 56.6836065589234
 0 <= xp_18_0 <= 137.011584169716
 0 <= xp_18_1 <= 205.517376254574
 0 <= xp_19_0 <= 202.008450976132
 0 <= xp_19_1 <= 808.033803904528
 0 <= xp_20_0 <= 122.372196986537
 0 <= xp_21_0 <= 261.911716571906
 0 <= xp_22_0 <= 1175.61573620931
 0 <= xp_23_0 <= 49.6154488295879
 0 <= xp_24_0 <= 130.018887199057
 0 <= xp_24_1 <= 195.028330798585
 0 <= xp_25_0 <= 552.309869544069
 0 <= xp_26_0 <= 14.6519639762915
 0 <= xp_27_0 <= 322.46897540954
 0 <= xp_28_0 <= 127.402914231616
 0 <= xp_28_1 <= 509.611656926464
 0 <= xp_29_0 <= 2336.13932068338
 0 <= xp_30_0 <= 140.004860930538
 0 <= xp_30_1 <= 35.0012152326345
 0 <= xp_31_0 <= 181.923312375156
 0 <= xp_32_0 <= 1289.13387084451
 0 <= xp_32_1 <= 429.711290281503
 0 <= xp_32_2 <= 429.711290281503
 0 <= xp_33_0 <= 7692.40685548416
 0 <= xp_34_0 <= 292.561361387547
 0 <= xp_34_1 <= 195.040907591698
 0 <= xp_35_0 <= 249.146271562519
 0 <= xp_36_0 <= 304.42127729282
 0 <= xp_37_0 <= 348.251401290568
 0 <= xp_38_0 <= 319.576312993619
 0 <= xp_39_0 <= 1501.7948655871
 0 <= xp_40_0 <= 648.409145718183
 0 <= xp_40_1 <= 162.102286429546
 0 <= xp_41_0 <= 76.2782502285046
 0 <= xp_42_0 <= 346.81764687572
 0 <= xp_42_1 <= 86.70441171893
 0 <= xp_43_0 <= 469.680338793653
 0 <= xp_44_0 <= 437.735284287404
 0 <= xp_45_0 <= 40.6230417540099
 0 <= xp_46_0 <= 1532.54512474764
 0 <= xp_47_0 <= 838.997868547987
 0 <= xp_48_0 <= 2219.50214135624
 0 <= xp_48_1 <= 554.875535339059
 0 <= xp_49_0 <= 84.0758619583765
 0 <= xp_50_0 <= 598.957195199061
 0 <= xp_50_1 <= 149.739298799765
 0 <= xp_51_0 <= 677.323193084273
 0 <= xp_52_0 <= 632.298273740819
 0 <= xp_53_0 <= 181.294472719521
 0 <= xp_54_0 <= 3525.71529724779
 0 <= xp_55_0 <= 1131.34542445262
 0 <= xp_56_0 <= 91.4332859293039
 0 <= xp_57_0 <= 196.701044282574
 0 <= xp_58_0 <= 2603.9998603976
 0 <= xp_58_1 <= 1735.99990693173
 0 <= xp_59_0 <= 10160.8540397131
 0 <= xp_60_0 <= 258.830402259295
 0 <= xp_60_1 <= 388.245603388943
 0 <= xp_61_0 <= 1386.1009457434
 0 <= xp_61_1 <= 924.067297162267
 0 <= xp_62_0 <= 125.264859402458
 0 <= xp_63_0 <= 100.664652074023
 0 <= xp_63_1 <= 25.1661630185058
 0 <= xp_64_0 <= 949.233460180772
 0 <= xp_65_0 <= 498.669846918418
 0 <= xp_66_0 <= 1603.7297737655
 0 <= xp_67_0 <= 386.233316490911
 0 <= xp_68_0 <= 281.292554758571
 0 <= xp_68_1 <= 1125.17021903428
 0 <= xp_69_0 <= 1640.5797775857
 0 <= xp_70_0 <= 602.994345788236
 0 <= xp_71_0 <= 67.6631469463074
 0 <= xp_72_0 <= 571.866782834312
 0 <= xp_73_0 <= 881.13012547552
 0 <= xp_74_0 <= 909.993865669159
 0 <= xp_75_0 <= 1683.96971382451
 0 <= xp_76_0 <= 1643.97551172613
 0 <= xp_77_0 <= 436.968099907529
 0 <= xp_77_1 <= 109.242024976882
 0 <= xp_78_0 <= 5344.74719230954
 0 <= xp_78_1 <= 16034.2415769286
 0 <= xp_78_2 <= 5344.74719230954
 0 <= xp_79_0 <= 610.402076931614
 0 <= xp_79_1 <= 203.467358977205
 0 <= xp_79_2 <= 203.467358977205
 0 <= xp_80_0 <= 172.251758471492
 0 <= xp_80_1 <= 43.062939617873
 0 <= xp_81_0 <= 249.146271562519
 0 <= xp_82_0 <= 209.906677050905
 0 <= xp_83_0 <= 481.18810449177
 0 <= xp_84_0 <= 850.002562521596
 0 <= xp_85_0 <= 312.25661940203
 0 <= xp_85_1 <= 78.0641548505075
 0 <= xp_86_0 <= 130.999877061847
 0 <= xp_86_1 <= 32.7499692654618
 0 <= xp_87_0 <= 134.948990099234
 0 <= xp_88_0 <= 406.167533574535
 0 <= xp_89_0 <= 1697.06215545482
 0 <= xp_89_1 <= 424.265538863706
 0 <= xp_90_0 <= 12438.687347526
 0 <= xp_90_1 <= 4146.22911584201
 0 <= xp_90_2 <= 4146.22911584201
 0 <= xp_91_0 <= 1559.73615145729
 0 <= xp_91_1 <= 519.912050485763
 0 <= xp_91_2 <= 519.912050485763
 0 <= xp_92_0 <= 63.8901090124985
 0 <= xp_93_0 <= 124.636019746823
 0 <= xp_94_0 <= 226.508043959665
 0 <= xp_95_0 <= 58.6078559051659
 0 <= xp_96_0 <= 110.298475598349
 0 <= xp_97_0 <= 504.077867956878
 0 <= xp_98_0 <= 109.367792908009
 0 <= xp_98_1 <= 27.3419482270023
 0 <= xp_99_0 <= 15.6581074253072
 0 <= xp_100_0 <= 480.99945259508
 0 <= xp_101_0 <= 238.959069141234
 0 <= xp_102_0 <= 71.6877207423703
 0 <= xp_103_0 <= 1376.90730997802
 0 <= xp_104_0 <= 126.145234920346
 0 <= xp_105_0 <= 1386.59144067479
 0 <= xp_106_0 <= 39.6168983049941
 0 <= xp_107_0 <= 430.126324454222
 0 <= xp_108_0 <= 324.808258928501
 0 <= xp_108_1 <= 324.808258928501
 0 <= xp_108_2 <= 162.404129464251
 0 <= xp_109_0 <= 554.712037028594
 0 <= xp_109_1 <= 369.808024685729
 0 <= xp_110_0 <= 127.402914231616
 0 <= xp_111_0 <= 2797.33032412597
 0 <= xp_112_0 <= 4477.14969622328
 0 <= xp_113_0 <= 406.859257195734
 0 <= xp_114_0 <= 2293.25245616909
 0 <= xp_115_0 <= 169.032099434642
 0 <= xp_115_1 <= 42.2580248586604
 0 <= xp_116_0 <= 122.19612188296
 0 <= xp_116_1 <= 30.5490304707399
 0 <= xp_117_0 <= 1858.53560222873
 0 <= xp_118_0 <= 3017.1726677359
 0 <= xp_119_0 <= 60.054187113126
 0 <= xp_120_0 <= 1660.03607653104
 0 <= xp_120_1 <= 415.009019132761
 0 <= xp_121_0 <= 72.2536764324417
 0 <= xp_122_0 <= 2175.59655659981
 0 <= xp_123_0 <= 491.438190878618
 0 <= xp_124_0 <= 131.679023889933
 0 <= xp_125_0 <= 26.0968457088453
 0 <= xp_126_0 <= 4854.52895036286
 0 <= xp_126_1 <= 9709.05790072571
 0 <= xp_126_2 <= 4854.52895036286
 0 <= xp_126_3 <= 4854.52895036286
 0 <= xp_127_0 <= 331.008617933061
 0 <= xp_127_1 <= 220.672411955374
 0 <= xp_128_0 <= 310.747404228506
 0 <= xp_128_1 <= 77.6868510571266
 0 <= xp_129_0 <= 18.7394217379179
 0 <= xp_129_1 <= 28.1091326068768
 0 <= xp_130_0 <= 386.044664594221
 0 <= xp_131_0 <= 440.577639530873
 0 <= xp_131_1 <= 293.718426353915

End
